
Gurobi 6.5.2 (win64) logging started 07/24/16 17:32:57


Gurobi 6.5.2 (win64) logging started 07/24/16 17:32:57

Optimize a model with 2664 rows, 790 columns and 7019 nonzeros
Coefficient statistics:
  Matrix range    [6e-08, 4e+02]
  Objective range [1e+00, 1e+00]
  Bounds range    [1e+00, 1e+00]
  RHS range       [6e-06, 3e+03]
Presolve removed 1997 rows and 136 columns
Presolve time: 0.00s
Presolved: 667 rows, 654 columns, 2973 nonzeros
Variable types: 285 continuous, 369 integer (369 binary)

Root relaxation: objective 1.754161e+01, 1460 iterations, 0.05 seconds

    Nodes    |    Current Node    |     Objective Bounds      |     Work
 Expl Unexpl |  Obj  Depth IntInf | Incumbent    BestBd   Gap | It/Node Time

     0     0   17.54161    0  104          -   17.54161      -     -    0s
H    0     0                      19.6987979   17.54161  11.0%     -    0s
H    0     0                      19.6785673   17.54161  10.9%     -    0s
H    0     0                      19.5780782   17.54161  10.4%     -    0s
H    0     0                      19.5746749   17.54161  10.4%     -    0s
     0     0   18.25859    0  106   19.57467   18.25859  6.72%     -    0s
     0     0   19.05408    0  110   19.57467   19.05408  2.66%     -    0s
     0     0   19.05408    0  114   19.57467   19.05408  2.66%     -    0s
     0     0   19.05989    0  113   19.57467   19.05989  2.63%     -    0s
     0     0   19.05989    0  113   19.57467   19.05989  2.63%     -    0s
     0     0   19.05989    0  114   19.57467   19.05989  2.63%     -    0s
     0     0   19.05989    0  114   19.57467   19.05989  2.63%     -    0s
H    0     0                      19.5686005   19.05989  2.60%     -    0s
     0     0   19.05989    0  102   19.56860   19.05989  2.60%     -    0s
     0     0   19.05989    0  102   19.56860   19.05989  2.60%     -    0s
H    0     0                      19.5515945   19.05989  2.51%     -    0s
     0     0   19.05989    0  100   19.55159   19.05989  2.51%     -    0s
H    0     0                      19.5451139   19.05989  2.48%     -    0s
H    0     0                      19.5290205   19.05989  2.40%     -    0s
     0     0   19.05989    0   99   19.52902   19.05989  2.40%     -    0s
     0     0   19.05989    0  101   19.52902   19.05989  2.40%     -    0s
     0     0   19.05989    0   96   19.52902   19.05989  2.40%     -    0s
     0     0   19.05989    0   99   19.52902   19.05989  2.40%     -    0s
     0     0   19.05989    0   98   19.52902   19.05989  2.40%     -    0s
     0     0   19.05989    0  104   19.52902   19.05989  2.40%     -    0s
     0     0   19.05989    0   94   19.52902   19.05989  2.40%     -    0s
     0     0   19.05989    0  100   19.52902   19.05989  2.40%     -    0s
     0     0   19.05989    0   92   19.52902   19.05989  2.40%     -    0s
     0     0   19.05989    0   99   19.52902   19.05989  2.40%     -    0s
     0     0   19.05989    0  100   19.52902   19.05989  2.40%     -    0s
     0     0   19.05989    0   94   19.52902   19.05989  2.40%     -    0s
     0     0   19.05989    0   78   19.52902   19.05989  2.40%     -    0s
     0     0   19.06029    0   87   19.52902   19.06029  2.40%     -    0s
     0     0   19.06699    0   87   19.52902   19.06699  2.37%     -    0s
     0     0   19.07525    0   87   19.52902   19.07525  2.32%     -    0s
     0     0   19.07762    0   85   19.52902   19.07762  2.31%     -    0s
     0     0   19.07795    0   85   19.52902   19.07795  2.31%     -    0s
     0     0   19.07795    0   91   19.52902   19.07795  2.31%     -    0s
     0     0   19.07795    0   91   19.52902   19.07795  2.31%     -    0s
     0     0   19.07795    0   89   19.52902   19.07795  2.31%     -    0s
H    0     2                      19.4833381   19.07795  2.08%     -    0s
     0     2   19.07795    0   76   19.48334   19.07795  2.08%     -    0s
*  103    97              29      19.4587737   19.12286  1.73%   9.7    0s
H  741   388                      19.4500431   19.17986  1.39%   8.6    0s
* 1184   590              30      19.4347082   19.19158  1.25%   9.1    0s
H 1398   592                      19.4082604   19.19158  1.12%   9.2    0s
* 2160   435              29      19.4063097   19.23142  0.90%   8.7    1s

Cutting planes:
  MIR: 30
  Flow cover: 20

Explored 5311 nodes (42179 simplex iterations) in 1.37 seconds
Thread count was 8 (of 8 available processors)

Optimal solution found (tolerance 1.00e-04)
Best objective 1.940630966796e+01, best bound 1.940630966796e+01, gap 0.0%

Wrote requested result file 'H1\instance16\\Results16E_Sol6.lp'

